0 67 73
1 78 85
2 54 89
3 91 91
4 91 94
5 92 94
6 65 100
7 95 100
8 99 99
9 82 98
10 95 97
11 88 96
12 95 95
13 95 95
14 89 92
15 66 91
16 47 90
17 59 87
18 82 85
19 81 81
20 68 80
21 74 79
22 70 79
23 77 80
24 74 82
25 31 82
26 77 79
27 43 76
28 70 74
29 65 75
30 57 73
31 70 72
32 46 72
33 56 74
34 66 71
35 46 69
36 64 69
37 60 67
38 49 68
39 55 69
40 64 64
41 27 61
42 50 57
43 48 57
44 54 56
45 54 56
46 54 55
47 50 56
48 52 57
49 44 57
50 40 56
51 46 54
52 50 51
53 43 52
54 42 51
55 48 48
56 37 49
57 37 48
58 36 46
59 36 47
60 32 44
61 29 43
62 38 42
63 41 41
64 27 38
65 32 35
66 20 36
67 34 34
68 32 35
69 35 35
70 27 36
71 30 36
72 34 34
73 26 30
74 27 31
75 22 30
76 16 31
77 24 28
78 13 25
79 12 21
80 16 20
81 17 20
82 15 19
83 11 19
84 13 18
85 12 16
86 10 12
87 10 11
88 7 8
89 11 11
90 10 10
91 9 9
92 6 10
93 8 10
94 7 9
95 6 10
96 5 8
97 6 6
98 6 6
99 7 7
100 4 6
101 5 6
102 3 6
103 6 6
104 5 5
105 2 4
106 1 1

